(set-info :smt-lib-version 2.6)
(set-logic QF_UFLRA)
(set-info :source |
MathSat group

|)
(set-info :category "random")
(set-info :status sat)
(declare-fun x0 () Real)
(declare-fun x1 () Real)
(declare-fun x2 () Real)
(declare-fun x3 () Real)
(declare-fun x4 () Real)
(declare-fun x5 () Real)
(declare-fun x6 () Real)
(declare-fun x7 () Real)
(declare-fun x8 () Real)
(declare-fun x9 () Real)
(declare-fun x10 () Real)
(declare-fun x11 () Real)
(declare-fun x12 () Real)
(declare-fun x13 () Real)
(declare-fun x14 () Real)
(declare-fun x15 () Real)
(declare-fun x16 () Real)
(declare-fun x17 () Real)
(declare-fun x18 () Real)
(declare-fun x19 () Real)
(declare-fun x20 () Real)
(declare-fun x21 () Real)
(declare-fun x22 () Real)
(declare-fun x23 () Real)
(declare-fun x24 () Real)
(declare-fun x25 () Real)
(declare-fun x26 () Real)
(declare-fun x27 () Real)
(declare-fun x28 () Real)
(declare-fun x29 () Real)
(declare-fun x30 () Real)
(declare-fun x31 () Real)
(declare-fun x32 () Real)
(declare-fun x33 () Real)
(declare-fun x34 () Real)
(declare-fun x35 () Real)
(declare-fun x36 () Real)
(declare-fun x37 () Real)
(declare-fun x38 () Real)
(declare-fun x39 () Real)
(declare-fun x40 () Real)
(declare-fun x41 () Real)
(declare-fun x42 () Real)
(declare-fun x43 () Real)
(declare-fun x44 () Real)
(declare-fun x45 () Real)
(declare-fun x46 () Real)
(declare-fun x47 () Real)
(declare-fun x48 () Real)
(declare-fun x49 () Real)
(declare-fun f0_1 (Real) Real)
(declare-fun f0_2 (Real Real) Real)
(declare-fun f0_3 (Real Real Real) Real)
(declare-fun f0_4 (Real Real Real Real) Real)
(declare-fun P0 () Bool)
(declare-fun P1 () Bool)
(declare-fun P2 () Bool)
(declare-fun P3 () Bool)
(declare-fun P4 () Bool)
(declare-fun P5 () Bool)
(declare-fun P6 () Bool)
(declare-fun P7 () Bool)
(declare-fun P8 () Bool)
(declare-fun P9 () Bool)
(declare-fun P10 () Bool)
(declare-fun P11 () Bool)
(declare-fun P12 () Bool)
(declare-fun P13 () Bool)
(declare-fun P14 () Bool)
(declare-fun P15 () Bool)
(declare-fun P16 () Bool)
(declare-fun P17 () Bool)
(declare-fun P18 () Bool)
(declare-fun P19 () Bool)
(declare-fun P20 () Bool)
(declare-fun P21 () Bool)
(declare-fun P22 () Bool)
(declare-fun P23 () Bool)
(declare-fun P24 () Bool)
(declare-fun P25 () Bool)
(declare-fun P26 () Bool)
(declare-fun P27 () Bool)
(declare-fun P28 () Bool)
(declare-fun P29 () Bool)
(declare-fun P30 () Bool)
(declare-fun P31 () Bool)
(declare-fun P32 () Bool)
(declare-fun P33 () Bool)
(declare-fun P34 () Bool)
(declare-fun P35 () Bool)
(declare-fun P36 () Bool)
(declare-fun P37 () Bool)
(declare-fun P38 () Bool)
(declare-fun P39 () Bool)
(declare-fun P40 () Bool)
(declare-fun P41 () Bool)
(declare-fun P42 () Bool)
(declare-fun P43 () Bool)
(declare-fun P44 () Bool)
(declare-fun P45 () Bool)
(declare-fun P46 () Bool)
(declare-fun P47 () Bool)
(declare-fun P48 () Bool)
(declare-fun P49 () Bool)
(assert (let ((?v_39 (* 23 x8)) (?v_86 (< (- (+ (* 22 x29) (* 12 x4)) (* 24 x46)) 18)) (?v_12 (* 15 x24))) (let ((?v_134 (distinct (+ (- ?v_12 (* 21 x8)) (* 23 x27)) 12)) (?v_176 (distinct (- (+ (* 27 x16) (* 6 x23)) (* 16 x37)) 13)) (?v_136 (< (- (- (* 22 x39) (* 26 x2)) (* 3 x7)) 18)) (?v_44 (* 18 x37)) (?v_56 (* 11 x31))) (let ((?v_40 (distinct (- (- (* 4 x49) ?v_56) (* 15 x9)) 7)) (?v_57 (* 5 x3)) (?v_78 (<= (- (+ ?v_12 (* 18 x21)) (* 13 x1)) 23)) (?v_52 (distinct (f0_2 x34 x45) (f0_2 x45 x43))) (?v_248 (distinct x5 (f0_2 x21 x31))) (?v_147 (= (f0_2 x1 x0) x42)) (?v_139 (distinct (f0_2 x0 x42) x18)) (?v_9 (f0_1 x10))) (let ((?v_234 (= ?v_9 x3)) (?v_75 (= (f0_2 x43 x16) x26)) (?v_85 (distinct (f0_2 x23 x40) (f0_2 x22 x14))) (?v_19 (= x46 (f0_2 x46 x34))) (?v_137 (distinct x27 (f0_1 x12))) (?v_41 (= (f0_2 x16 x48) (f0_1 x6))) (?v_81 (= (f0_1 x23) x46)) (?v_185 (distinct (f0_2 x43 x1) (f0_2 x19 x40))) (?v_135 (distinct (f0_2 x19 x49) (f0_1 x33))) (?v_96 (= (f0_1 x37) x22)) (?v_6 (f0_1 x9))) (let ((?v_130 (= ?v_6 x4)) (?v_27 (f0_1 x30))) (let ((?v_89 (= ?v_27 (f0_1 x45))) (?v_42 (f0_1 x46))) (let ((?v_143 (distinct x49 ?v_42)) (?v_43 (distinct (f0_2 x22 x11) x48)) (?v_20 (f0_1 x3))) (let ((?v_95 (distinct ?v_20 (f0_2 x49 x29))) (?v_18 (distinct ?v_9 x47)) (?v_186 (= (f0_2 x14 x24) (f0_2 x33 x27))) (?v_35 (f0_1 x13))) (let ((?v_68 (distinct ?v_35 (f0_1 x48))) (?v_17 (= (f0_2 x44 x20) (f0_1 x47))) (?v_132 (distinct (f0_1 x20) (f0_1 x31))) (?v_198 (distinct (f0_1 x1) x28)) (?v_127 (= ?v_27 ?v_6)) (?v_48 (= ?v_20 (f0_2 x19 x17))) (?v_149 (= (f0_2 x10 x41) (f0_2 x14 x28))) (?v_2 (distinct (f0_1 x43) x37)) (?v_170 (distinct x27 ?v_27)) (?v_93 (distinct x43 (f0_2 x27 x8))) (?v_115 (f0_1 x24))) (let ((?v_169 (= x8 ?v_115)) (?v_58 (distinct (f0_2 x26 x6) x10)) (?v_64 (= (f0_2 x26 x43) (f0_2 x33 x19))) (?v_121 (= (f0_2 x25 x27) (f0_1 x36))) (?v_140 (= (f0_2 x37 x34) (f0_1 x42))) (?v_259 (= (f0_1 x4) (f0_1 x16))) (?v_125 (f0_1 x35))) (let ((?v_164 (distinct ?v_125 (f0_1 x0))) (?v_233 (= x45 ?v_125)) (?v_200 (= (f0_2 x18 x25) x34)) (?v_103 (distinct ?v_115 (f0_1 x25))) (?v_114 (distinct x49 ?v_6)) (?v_62 (= (f0_2 x12 x18) (f0_1 x14))) (?v_37 (distinct (f0_2 x35 x10) (f0_2 x28 x28))) (?v_33 (distinct ?v_27 (f0_2 x31 x19))) (?v_47 (= ?v_42 (f0_2 x35 x35))) (?v_26 (distinct (f0_2 x15 x30) (f0_1 x49))) (?v_100 (distinct x16 x14)) (?v_129 (distinct ?v_35 ?v_20)) (?v_11 (distinct (f0_2 x42 x25) (f0_1 x32))) (?v_13 (not ?v_93))) (let ((?v_72 (not ?v_164)) (?v_25 (not P45)) (?v_30 (not ?v_127)) (?v_201 (not P36)) (?v_197 (not P19)) (?v_28 (not ?v_143)) (?v_29 (not ?v_43)) (?v_155 (not ?v_62)) (?v_65 (not ?v_135)) (?v_90 (not P41)) (?v_36 (not ?v_103)) (?v_88 (not P37)) (?v_80 (not P29)) (?v_53 (not P48)) (?v_71 (not P6)) (?v_172 (not P32)) (?v_8 (not ?v_130)) (?v_46 (not P14)) (?v_179 (not ?v_186)) (?v_66 (not ?v_129)) (?v_117 (not P21)) (?v_31 (not ?v_17)) (?v_167 (not ?v_18)) (?v_22 (not ?v_234)) (?v_49 (not P44)) (?v_230 (not ?v_58)) (?v_34 (not P9)) (?v_113 (not ?v_140)) (?v_245 (not ?v_2)) (?v_154 (not ?v_41)) (?v_181 (not ?v_132)) (?v_133 (not ?v_26)) (?v_108 (not P3)) (?v_94 (not ?v_137)) (?v_74 (not P18)) (?v_60 (not ?v_64)) (?v_51 (not P46)) (?v_240 (not ?v_68)) (?v_189 (not ?v_100)) (?v_144 (not P42)) (?v_105 (not P1)) (?v_55 (not ?v_40)) (?v_67 (not P16)) (?v_69 (not ?v_176)) (?v_106 (not P12)) (?v_211 (not P43)) (?v_83 (not ?v_47)) (?v_148 (not P24)) (?v_97 (not ?v_52)) (?v_231 (not P39)) (?v_126 (not P28)) (?v_196 (not ?v_149)) (?v_157 (not ?v_48)) (?v_146 (not P49)) (?v_226 (not ?v_75)) (?v_109 (not P23)) (?v_79 (not P33)) (?v_98 (not ?v_81)) (?v_138 (not P34)) (?v_244 (not P0)) (?v_213 (not P25)) (?v_171 (not ?v_89)) (?v_116 (not P47)) (?v_178 (not P31)) (?v_258 (not ?v_95)) (?v_221 (not P4)) (?v_256 (not ?v_11)) (?v_262 (not P38)) (?v_251 (not ?v_114)) (?v_174 (not P35)) (?v_188 (not P30)) (?v_151 (not P10)) (?v_227 (not ?v_19)) (?v_158 (not ?v_121)) (?v_175 (not ?v_185)) (?v_218 (not ?v_86)) (?v_250 (not ?v_33)) (?v_202 (not ?v_233)) (?v_145 (not ?v_37)) (?v_183 (not ?v_96)) (?v_232 (not P40)) (?v_160 (not P26)) (?v_192 (not P5)) (?v_225 (not ?v_136)) (?v_159 (not ?v_200)) (?v_180 (not P15)) (?v_228 (not ?v_78)) (?v_194 (not P8)) (?v_219 (not P17)) (?v_208 (not ?v_259)) (?v_165 (not P2)) (?v_264 (not ?v_85)) (?v_212 (not P20)) (?v_222 (not ?v_169)) (?v_206 (not ?v_139)) (?v_190 (not P13)) (?v_238 (not ?v_170)) (?v_253 (not P7)) (?v_257 (not P22)) (?v_239 (not ?v_198)) (?v_247 (not ?v_134)) (?v_246 (not P11)) (?v_254 (not ?v_147)) (?v_249 (not P27)) (?v_260 (not ?v_248)) (?v_122 (= (- (- (* 6 x43) (* 5 x35)) x47) 19))) (let ((?v_182 (not ?v_122)) (?v_152 (< (- (- (* 23 x17) x41) (* 25 x42)) 7)) (?v_252 (< (- (- (* 25 x29) x47) (* 13 x36)) 9))) (let ((?v_63 (not ?v_252)) (?v_173 (<= (+ (* 15 x20) (* 11 x36) (* 15 x15)) 26)) (?v_112 (= (+ (- (* 5 x41) x44) (* 20 x14)) 1)) (?v_255 (< (- (* 10 x26) (* 9 x48)) 9))) (let ((?v_199 (not ?v_255)) (?v_236 (< (+ (* 2 x33) (* 8 x20)) 27)) (?v_243 (not ?v_173)) (?v_187 (not ?v_112)) (?v_217 (not ?v_152))) (let ((?v_237 (not ?v_236)) (?v_0 (= (- (+ (* (- 8) x3) ?v_44) (* 5 x32)) (- 28))) (?v_1 (<= (- (+ (* (- 21) x9) (* 11 x8)) (* 20 x43)) 12))) (let ((?v_3 (not ?v_1)) (?v_4 (<= (+ (- (* 6 x27) (* 19 x33)) (* 10 x37)) (- 17))) (?v_16 (< (+ (- (* 11 x45) (* 11 x42)) (* 14 x31)) (- 10)))) (let ((?v_45 (not ?v_16)) (?v_123 (< (+ (* (- 12) x18) (* 18 x6) (* 26 x10)) 26))) (let ((?v_50 (not ?v_123)) (?v_163 (< (- (- (* (- 2) x41) 0) (* 7 x37)) (- 1)))) (let ((?v_153 (not ?v_163)) (?v_142 (<= (- (+ (* (- 11) x4) x30) (* 20 x12)) 7)) (?v_14 (<= (- (+ (* 16 x28) (* 5 x4)) (* 5 x36)) (- 3))) (?v_193 (< (- (+ (* (- 24) x30) (* 12 x15)) (* 14 x17)) 15))) (let ((?v_32 (not ?v_193)) (?v_5 (<= (- (+ (* (- 15) x49) (* 7 x28)) (* 25 x25)) 18)) (?v_73 (distinct (+ (* (- 9) x30) (* 6 x32) (* 8 x7)) 0))) (let ((?v_119 (not ?v_73)) (?v_21 (= (+ (* 8 x11) x2) (- 16)))) (let ((?v_99 (not ?v_21)) (?v_7 (< (- (- (* 5 x45) (* 7 x44)) ?v_57) (- 21))) (?v_124 (<= (+ (- (* (- 9) x41) (* 15 x30)) (* 9 x1)) 17)) (?v_141 (not ?v_4)) (?v_110 (<= (- (+ (* (- 6) x37) (* 17 x36)) (* 5 x49)) (- 5)))) (let ((?v_59 (not ?v_110)) (?v_24 (* (- 22) x4))) (let ((?v_38 (<= (+ (- ?v_24 (* 4 x18)) (* 11 x47)) 6))) (let ((?v_10 (not ?v_38)) (?v_84 (<= (+ (- (* (- 27) x1) (* 15 x49)) (* 17 x29)) (- 14))) (?v_23 (<= (- (+ (* (- 8) x32) (* 9 x28)) (* 13 x32)) 14)) (?v_101 (<= (+ (- (* (- 1) x2) (* 7 x42)) (* 22 x17)) 14)) (?v_87 (<= (- (- (* 5 x33) (* 6 x22)) (* 22 x3)) (- 7))) (?v_220 (< (+ (- (* (- 7) x4) (* 20 x46)) x48) (- 21)))) (let ((?v_107 (not ?v_220)) (?v_241 (not ?v_14)) (?v_15 (< (- (- (* (- 5) x11) ?v_39) (* 6 x21)) (- 26)))) (let ((?v_77 (not ?v_15)) (?v_54 (not ?v_23)) (?v_235 (<= (- (- ?v_24 (* 20 x38)) (* 4 x30)) 9))) (let ((?v_168 (not ?v_235)) (?v_61 (not ?v_5)) (?v_82 (= (- (+ (* 4 x38) (* 8 x49)) (* 19 x39)) (- 28)))) (let ((?v_76 (not ?v_82)) (?v_70 (<= (+ (* 26 x11) ?v_39 (* 18 x7)) (- 14))) (?v_131 (< (+ (* (- 1) x35) (* 19 x49) ?v_44) (- 12)))) (let ((?v_195 (not ?v_131)) (?v_128 (< (- (- (* (- 4) x29) (* 17 x12)) 0) (- 11))) (?v_177 (<= (- (- (* (- 2) x8) (* 6 x28)) x19) (- 18)))) (let ((?v_104 (not ?v_177)) (?v_120 (< (+ (* (- 19) x44) (* 7 x27) (* 24 x35)) (- 1))) (?v_102 (< (- (+ (* (- 17) x43) x47) (* 22 x42)) (- 10)))) (let ((?v_209 (not ?v_102)) (?v_184 (<= (+ (- (* (- 24) x12) ?v_56) ?v_57) (- 21)))) (let ((?v_191 (not ?v_184)) (?v_166 (<= (+ (* (- 23) x13) (* 21 x28) (* 23 x39)) 5))) (let ((?v_91 (not ?v_166)) (?v_161 (not ?v_0)) (?v_111 (not ?v_70)) (?v_223 (not ?v_84)) (?v_242 (not ?v_7)) (?v_92 (not ?v_87)) (?v_203 (<= (- (+ (* (- 5) x37) (* 15 x35)) 0) (- 8)))) (let ((?v_162 (not ?v_203)) (?v_118 (< (- (- (* (- 1) x48) (* 3 x14)) (* 24 x18)) 21))) (let ((?v_156 (not ?v_118)) (?v_224 (<= (- (* 27 x1) (* 7 x1)) (- 14))) (?v_207 (not ?v_120)) (?v_205 (< (+ (- x21 (* 24 x37)) (* 8 x30)) (- 22))) (?v_150 (not ?v_124)) (?v_214 (or ?v_101 P27)) (?v_215 (not ?v_128)) (?v_263 (or ?v_140 ?v_141)) (?v_210 (not ?v_142)) (?v_204 (<= (- (- (* (- 8) x20) (* 24 x17)) (* 21 x25)) (- 3))) (?v_229 (not ?v_101))) (let ((?v_216 (not ?v_205)) (?v_261 (not ?v_224))) (and (and (and (and (and (and (and (and (and (and (and (and (and (and (and (and (and (and (and (and (and (and (and (and (and (and (and (and (and (and (and (and (and (and (and (and (and (and (and (and (and (and (and (and (and (and (and (and (and (and (and (and (and (and (and (and (and (and (and (and (and (and (and (and (and (and (and (and (and (and (and (and (and (and (and (and (and (and (and (and (and (and (and (and (and (and (and (and (and (and (and (and (and (and (and (and (and (and (and (and (and (and (and (and (and (and (and (and (and (and (and (and (and (and (and (and (and (and (and (and (and (and (and (and (and (and (and (and (and (and (and (and (and (and (and (and (and (and (and (and (and (and (and (and (and (and (and (and (and (and (and (and (and (and (and (and (and (and (and (and (and (and (and (and (and (and (and (and (and (and (and (and (and (and (and (and (and (and (and (and (and (and (and (and (and (and (and (and (and (and (and (and (and (and (and (and (and (and (and (and (and (and (and (and (and (and (and (and (and (and (and (and (and (and (and (and (and (and (and (and (and (and (and (and (and (and (and (and (and (and (and (and (and (and (and (and (and (and (and (and (and (and (and (and (and (and (and (and (and (and (and (and (and (and (and (and (and (and (and (and (and (and (and (and (and (and (and (and (and (and (and (and (and (and (and (and (and (and (and (and (and (and (and (and (and (and (and (and (and (and (and (and (and (and (and (and (and (and (and (and (and (and (and (and (and (and (and (and (and (and (and (and (and (and (and (and (and (and (and (and (and (and (and (and (and (and (and (and (and (and (and (and (and (and (and (and (and (and (and (and (and (and (and (and (and (and (and (and (and (and (and (and (and (and (and (and (and (and (and (and (and (and (and (and (and (and (and (and (and (and (and (and (and (and (and (and (and (and (and (and (and (and (and (and (and (and (and (and (and (and (and (and (and (and (and (and (and (and (and (and (and (and (and (and (and (and (and (and (and (and (and (and (and (and (and (and (and (and (and (and (and (and (and (and (and (and (and (and (and (and (and (and (and (and (and (and (and (and (and (and (and (and (and (and (and (and (and (and (and (and (and (and (and (and (and (and (and (and (and (and (and (and (and (and (and (and (and (and (and (and (and (and (and (and (and (and (and (and (and (and (and (and (and (and (and (and (and (and (and (and (and (and (and (and (and (and (and (and (and (and (and (and (and (and (and (and (and (and (and (and (and (and (and (and (and (and (and (and (and (and (and (and (and (and (and (and (and (and (and (and (and (and (and (and (and (and (and (and (and (and (and (and (and (and (and (and (and (and (and (and (and (and (and (and (and (and (and (and (and (and (and (and (and (and (and (and (and (and (and (and (and (and (and (and (and (and (and (and (and (and (and (and (and (and (and (and (and (and (and (and (and (and (and (and (and (and (and (and (and (or (or ?v_0 ?v_3) P39) (or (or ?v_13 ?v_72) ?v_25)) (or (or ?v_4 ?v_2) ?v_30)) (or (or P41 ?v_45) ?v_201)) (or (or ?v_197 P19) ?v_28)) (or (or ?v_11 ?v_50) ?v_153)) (or (or ?v_29 P23) ?v_155)) (or (or ?v_0 ?v_1) ?v_2)) (or (or ?v_142 ?v_14) ?v_65)) (or (or ?v_78 ?v_32) ?v_5)) (or (or ?v_90 ?v_36) ?v_119)) (or (or ?v_99 ?v_3) ?v_7)) (or (or ?v_88 ?v_182) ?v_80)) (or (or P41 ?v_124) P32)) (or (or ?v_53 ?v_19) ?v_71)) (or (or ?v_141 ?v_59) ?v_172)) (or (or P11 ?v_5) ?v_85)) (or (or ?v_10 P44) ?v_8)) (or (or ?v_46 ?v_179) ?v_81)) (or (or ?v_75 ?v_7) ?v_84)) (or (or ?v_66 ?v_117) ?v_23)) (or (or P44 ?v_7) ?v_31)) (or (or ?v_167 ?v_101) P6)) (or (or ?v_8 ?v_22) ?v_87)) (or (or ?v_10 P18) ?v_11)) (or (or ?v_37 P29) ?v_107)) (or (or ?v_49 ?v_134) P25)) (or (or ?v_13 ?v_230) ?v_10)) (or (or P0 P33) P47)) (or (or ?v_34 ?v_121) ?v_113)) (or (or P42 ?v_241) ?v_15)) (or (or P27 ?v_77) ?v_16)) (or (or ?v_17 P21) ?v_18)) (or (or ?v_40 ?v_19) ?v_48)) (or (or ?v_245 ?v_26) ?v_21)) (or (or ?v_1 ?v_22) ?v_154)) (or (or ?v_54 ?v_168) ?v_181)) (or (or ?v_25 P48) ?v_133)) (or (or ?v_33 P26) ?v_108)) (or (or ?v_61 P23) ?v_28)) (or (or ?v_10 ?v_29) P5)) (or (or P8 ?v_94) ?v_74)) (or (or ?v_60 ?v_152) ?v_30)) (or (or ?v_31 ?v_96) P7)) (or (or ?v_32 ?v_51) ?v_33)) (or (or ?v_34 ?v_31) ?v_240)) (or (or ?v_189 ?v_76) ?v_36)) (or (or ?v_37 ?v_144) ?v_38)) (or (or ?v_63 ?v_105) P30)) (or (or ?v_70 P47) ?v_36)) (or (or ?v_55 ?v_41) ?v_47)) (or (or ?v_43 ?v_67) ?v_195)) (or (or P31 ?v_45) ?v_69)) (or (or ?v_46 ?v_106) ?v_211)) (or (or ?v_83 ?v_148) ?v_13)) (or (or ?v_89 ?v_48) ?v_49)) (or (or ?v_0 ?v_128) ?v_50)) (or (or ?v_97 ?v_104) ?v_29)) (or (or ?v_120 ?v_51) ?v_52)) (or (or ?v_53 ?v_209) P23)) (or (or P6 P31) ?v_54)) (or (or ?v_45 ?v_7) ?v_55)) (or (or ?v_191 ?v_58) ?v_59)) (or (or ?v_60 ?v_91) P31)) (or (or ?v_61 ?v_62) P5)) (or (or ?v_231 ?v_198) ?v_63)) (or (or P49 ?v_25) ?v_126)) (or (or ?v_64 ?v_95) ?v_196)) (or (or ?v_23 ?v_65) ?v_66)) (or (or P39 P49) P22)) (or (or ?v_161 ?v_67) ?v_173)) (or (or ?v_68 ?v_1) P42)) (or (or ?v_69 ?v_157) ?v_111)) (or (or ?v_71 ?v_45) ?v_2)) (or (or ?v_72 P8) ?v_146)) (or (or ?v_73 P46) P24)) (or (or ?v_74 ?v_54) ?v_226)) (or (or ?v_109 ?v_76) ?v_77)) (or (or ?v_79 ?v_48) ?v_78)) (or (or ?v_79 P3) ?v_80)) (or (or ?v_98 ?v_41) ?v_28)) (or (or P34 ?v_69) ?v_82)) (or (or ?v_114 P32) ?v_83)) (or (or P47 ?v_70) ?v_223)) (or (or ?v_138 ?v_242) ?v_86)) (or (or ?v_244 ?v_112) P19)) (or (or ?v_213 ?v_85) P20)) (or (or ?v_86 ?v_92) ?v_88)) (or (or ?v_171 ?v_89) ?v_90)) (or (or P49 ?v_116) ?v_178)) (or (or ?v_91 P15) ?v_92)) (or (or ?v_93 ?v_94) ?v_45)) (or (or ?v_258 ?v_221) ?v_147)) (or (or ?v_96 ?v_97) ?v_98)) (or (or ?v_99 ?v_100) ?v_162)) (or (or ?v_101 ?v_102) ?v_98)) (or (or ?v_83 ?v_156) P41)) (or (or ?v_224 ?v_256) ?v_103)) (or (or ?v_36 ?v_10) ?v_104)) (or (or ?v_105 ?v_76) ?v_106)) (or (or ?v_107 ?v_16) ?v_199)) (or (or ?v_108 ?v_109) ?v_73)) (or (or ?v_110 P45) ?v_111)) (or (or ?v_262 ?v_112) P45)) (or (or ?v_5 ?v_113) ?v_96)) (or (or ?v_85 ?v_251) ?v_169)) (or (or ?v_25 P22) ?v_55)) (or (or ?v_136 ?v_116) ?v_117)) (or (or ?v_118 ?v_236) ?v_174)) (or (or ?v_46 ?v_188) ?v_151)) (or (or ?v_119 ?v_75) ?v_207)) (or (or ?v_17 P12) ?v_227)) (or (or ?v_158 ?v_80) ?v_70)) (or (or ?v_122 ?v_175) ?v_205)) (or (or ?v_66 P20) ?v_123)) (or (or ?v_150 ?v_218) P12)) (or (or ?v_250 P29) ?v_202)) (or (or ?v_126 ?v_127) ?v_128)) (or ?v_214 ?v_145)) (or (or ?v_139 P40) ?v_129)) (or (or P20 P41) P18)) (or (or ?v_183 ?v_68) ?v_130)) (or (or ?v_122 ?v_131) ?v_103)) (or (or ?v_62 ?v_232) ?v_65)) (or (or ?v_160 ?v_132) P28)) (or (or ?v_133 ?v_129) ?v_32)) (or (or ?v_170 P22) P2)) (or (or ?v_99 ?v_192) ?v_134)) (or (or ?v_130 ?v_135) P35)) (or (or ?v_215 ?v_110) ?v_103)) (or (or ?v_225 ?v_137) P11)) (or (or ?v_53 ?v_138) ?v_52)) (or (or ?v_109 ?v_139) ?v_132)) (or ?v_263 ?v_210)) (or (or ?v_143 ?v_137) ?v_74)) (or (or P25 ?v_144) ?v_121)) (or (or P46 P26) ?v_159)) (or (or ?v_145 ?v_139) ?v_146)) (or (or ?v_107 ?v_25) ?v_82)) (or (or ?v_147 ?v_148) ?v_62)) (or (or ?v_0 ?v_101) ?v_149)) (or (or ?v_180 ?v_70) ?v_150)) (or (or ?v_109 ?v_151) ?v_98)) (or (or ?v_123 ?v_90) ?v_152)) (or (or ?v_11 ?v_91) P15)) (or (or ?v_52 ?v_110) ?v_109)) (or (or ?v_118 ?v_2) ?v_153)) (or (or ?v_144 ?v_116) ?v_18)) (or (or ?v_228 ?v_194) ?v_77)) (or (or P18 ?v_154) ?v_16)) (or (or ?v_155 ?v_72) ?v_156)) (or (or P5 ?v_157) ?v_133)) (or (or ?v_107 ?v_49) ?v_158)) (or (or ?v_159 ?v_219) ?v_66)) (or (or P29 P49) P0)) (or (or ?v_154 ?v_69) ?v_23)) (or (or P49 ?v_149) ?v_208)) (or (or ?v_101 ?v_160) ?v_161)) (or (or ?v_165 ?v_162) ?v_122)) (or (or ?v_163 ?v_264) ?v_108)) (or (or ?v_77 P31) ?v_51)) (or (or ?v_164 ?v_55) ?v_165)) (or (or ?v_38 ?v_86) P41)) (or (or ?v_166 ?v_15) ?v_167)) (or (or ?v_204 ?v_168) ?v_132)) (or (or ?v_212 ?v_155) ?v_166)) (or (or ?v_129 ?v_222) ?v_108)) (or (or ?v_50 ?v_169) ?v_100)) (or (or P11 ?v_43) ?v_158)) (or (or P31 ?v_146) ?v_32)) (or (or ?v_170 ?v_153) ?v_157)) (or (or ?v_74 ?v_139) ?v_77)) (or (or P41 ?v_171) ?v_172)) (or (or ?v_206 ?v_90) ?v_243)) (or (or P39 ?v_113) ?v_174)) (or (or ?v_190 P45) P47)) (or (or ?v_43 ?v_175) ?v_176)) (or (or ?v_67 P22) ?v_4)) (or (or P18 ?v_2) ?v_177)) (or (or ?v_121 P25) P11)) (or (or ?v_131 ?v_41) ?v_159)) (or (or P17 P17) ?v_83)) (or (or ?v_187 P28) ?v_141)) (or (or ?v_50 ?v_0) ?v_178)) (or (or ?v_135 ?v_95) ?v_8)) (or (or ?v_33 ?v_107) ?v_117)) (or (or ?v_238 P28) ?v_179)) (or (or P47 ?v_98) ?v_180)) (or (or ?v_152 ?v_170) ?v_112)) (or (or ?v_136 P39) ?v_28)) (or (or ?v_181 P12) ?v_77)) (or (or ?v_104 ?v_155) ?v_182)) (or (or ?v_248 P40) ?v_217)) (or (or ?v_110 ?v_59) ?v_162)) (or (or P14 ?v_183) ?v_43)) (or (or ?v_138 P45) ?v_184)) (or (or ?v_185 ?v_186) ?v_187)) (or (or ?v_19 ?v_188) ?v_189)) (or (or ?v_58 P1) ?v_4)) (or (or ?v_156 ?v_162) ?v_65)) (or (or ?v_23 ?v_190) ?v_253)) (or (or P23 ?v_191) ?v_257)) (or (or ?v_161 ?v_192) ?v_121)) (or (or ?v_193 ?v_63) ?v_75)) (or (or ?v_53 ?v_163) ?v_194)) (or (or P27 ?v_99) ?v_195)) (or (or ?v_77 P22) ?v_62)) (or (or ?v_196 ?v_197) P7)) (or (or P42 P6) ?v_103)) (or (or ?v_61 P11) ?v_239)) (or (or ?v_43 ?v_229) ?v_138)) (or (or ?v_36 ?v_138) ?v_46)) (or (or ?v_63 ?v_170) ?v_131)) (or (or ?v_1 ?v_101) ?v_199)) (or (or ?v_49 ?v_95) ?v_142)) (or (or P36 ?v_70) P39)) (or (or ?v_200 P7) ?v_90)) (or (or ?v_52 ?v_175) ?v_201)) (or (or ?v_199 ?v_202) ?v_181)) (or (or P2 ?v_189) ?v_203)) (or (or ?v_113 ?v_109) ?v_121)) (or (or ?v_71 ?v_49) ?v_201)) (or (or ?v_204 ?v_205) ?v_54)) (or (or ?v_204 ?v_206) ?v_194)) (or (or ?v_90 ?v_199) P7)) (or (or ?v_14 P14) P2)) (or (or ?v_133 P17) ?v_63)) (or (or P42 ?v_206) ?v_207)) (or (or P15 ?v_208) ?v_41)) (or (or P26 ?v_130) ?v_25)) (or (or ?v_123 ?v_88) P31)) (or (or ?v_157 P27) ?v_196)) (or (or ?v_10 ?v_182) ?v_48)) (or (or ?v_96 ?v_95) ?v_204)) (or (or ?v_127 ?v_159) ?v_209)) (or (or ?v_210 ?v_211) ?v_212)) (or (or ?v_213 ?v_216) ?v_95)) (or (or P25 P10) ?v_154)) (or (or P34 ?v_106) ?v_158)) (or ?v_214 ?v_45)) (or (or ?v_215 ?v_203) ?v_94)) (or (or ?v_216 ?v_136) P9)) (or (or ?v_129 ?v_165) P28)) (or (or P40 ?v_140) P25)) (or (or P21 ?v_217) P18)) (or (or ?v_218 ?v_122) ?v_219)) (or (or ?v_114 ?v_101) P31)) (or (or P21 ?v_191) ?v_220)) (or (or ?v_181 ?v_0) ?v_155)) (or (or ?v_221 ?v_79) ?v_148)) (or (or ?v_10 ?v_222) ?v_223)) (or (or ?v_185 ?v_86) ?v_224)) (or (or ?v_180 ?v_155) ?v_32)) (or (or ?v_225 P36) ?v_93)) (or (or ?v_123 P40) ?v_168)) (or (or ?v_162 ?v_226) ?v_247)) (or (or ?v_203 P48) ?v_50)) (or (or ?v_142 P5) ?v_218)) (or (or ?v_201 P6) ?v_19)) (or (or P44 P12) ?v_184)) (or (or ?v_206 ?v_143) ?v_215)) (or (or ?v_227 ?v_111) ?v_104)) (or (or P45 ?v_215) ?v_154)) (or (or ?v_218 ?v_19) P49)) (or (or ?v_166 ?v_178) ?v_228)) (or (or ?v_211 ?v_79) ?v_229)) (or (or P31 ?v_230) ?v_185)) (or (or ?v_1 ?v_28) ?v_155)) (or (or ?v_231 ?v_50) P23)) (or (or ?v_130 P34) ?v_150)) (or (or ?v_130 P38) ?v_143)) (or (or ?v_105 ?v_156) ?v_41)) (or (or ?v_37 P1) ?v_36)) (or (or ?v_130 ?v_232) ?v_141)) (or (or ?v_58 ?v_233) P1)) (or (or ?v_90 ?v_175) ?v_153)) (or (or ?v_121 ?v_86) ?v_46)) (or (or P1 P12) ?v_232)) (or (or ?v_172 ?v_205) ?v_234)) (or (or ?v_0 ?v_174) ?v_88)) (or (or ?v_161 P40) P10)) (or (or ?v_165 ?v_41) ?v_61)) (or (or ?v_183 ?v_3) ?v_55)) (or (or ?v_72 ?v_177) ?v_41)) (or (or ?v_215 ?v_91) P23)) (or (or P12 ?v_72) ?v_188)) (or (or ?v_199 P13) ?v_22)) (or (or ?v_133 ?v_91) ?v_110)) (or (or P31 P13) ?v_235)) (or (or ?v_131 ?v_232) ?v_31)) (or (or P11 ?v_88) ?v_195)) (or (or ?v_107 ?v_164) ?v_93)) (or (or ?v_106 ?v_97) ?v_237)) (or (or P31 ?v_200) ?v_211)) (or (or P5 ?v_7) ?v_175)) (or (or ?v_179 ?v_149) ?v_21)) (or (or ?v_237 ?v_178) P47)) (or (or ?v_178 ?v_155) P9)) (or (or ?v_84 ?v_238) ?v_143)) (or (or ?v_90 ?v_121) ?v_73)) (or (or ?v_206 ?v_8) ?v_203)) (or (or ?v_51 ?v_127) ?v_17)) (or (or P0 ?v_88) ?v_7)) (or (or P49 ?v_220) ?v_94)) (or (or ?v_124 ?v_3) ?v_158)) (or (or ?v_197 ?v_96) ?v_81)) (or (or ?v_227 P20) ?v_78)) (or (or ?v_72 ?v_18) ?v_155)) (or (or ?v_37 P40) ?v_166)) (or (or P39 ?v_211) ?v_148)) (or (or ?v_72 ?v_181) ?v_150)) (or (or ?v_49 P28) ?v_164)) (or (or ?v_96 ?v_205) ?v_146)) (or (or ?v_221 ?v_166) ?v_168)) (or (or ?v_239 ?v_94) ?v_172)) (or (or ?v_72 ?v_68) P24)) (or (or ?v_198 ?v_178) ?v_105)) (or (or ?v_172 ?v_101) ?v_22)) (or (or ?v_130 ?v_133) ?v_153)) (or (or ?v_134 ?v_108) ?v_85)) (or (or ?v_111 ?v_96) ?v_105)) (or (or ?v_240 ?v_70) ?v_142)) (or (or ?v_181 P24) ?v_195)) (or (or ?v_95 ?v_239) ?v_120)) (or (or ?v_30 ?v_241) ?v_144)) (or (or ?v_85 ?v_106) ?v_235)) (or (or ?v_41 ?v_61) ?v_76)) (or (or ?v_167 ?v_194) ?v_176)) (or (or ?v_82 ?v_225) ?v_83)) (or (or ?v_142 ?v_242) P34)) (or (or ?v_234 ?v_198) ?v_73)) (or (or ?v_191 P48) ?v_119)) (or (or ?v_11 ?v_36) ?v_34)) (or (or ?v_17 ?v_55) P26)) (or (or ?v_185 P39) ?v_79)) (or (or ?v_95 ?v_34) ?v_112)) (or (or ?v_93 P27) ?v_127)) (or (or ?v_110 ?v_129) ?v_205)) (or (or ?v_99 ?v_142) ?v_147)) (or (or ?v_94 ?v_25) ?v_70)) (or (or ?v_205 ?v_38) ?v_104)) (or (or ?v_114 ?v_175) ?v_211)) (or (or ?v_157 ?v_83) ?v_98)) (or (or ?v_111 ?v_132) P1)) (or (or ?v_243 ?v_147) ?v_246)) (or (or ?v_21 ?v_89) P10)) (or (or ?v_117 P13) P16)) (or (or ?v_211 ?v_227) ?v_167)) (or (or P33 ?v_51) ?v_228)) (or (or ?v_21 ?v_205) ?v_138)) (or (or ?v_174 ?v_219) ?v_163)) (or (or ?v_244 ?v_241) ?v_58)) (or (or ?v_254 ?v_193) ?v_29)) (or (or P8 ?v_156) ?v_230)) (or (or P27 ?v_130) ?v_236)) (or (or P47 ?v_245) ?v_246)) (or (or P5 ?v_150) P26)) (or (or P18 ?v_242) ?v_75)) (or (or ?v_220 ?v_217) ?v_127)) (or (or ?v_95 P7) ?v_217)) (or (or P0 ?v_221) ?v_201)) (or (or ?v_180 ?v_170) ?v_189)) (or (or P39 ?v_247) ?v_248)) (or (or ?v_63 ?v_240) ?v_197)) (or (or P13 ?v_249) ?v_260)) (or (or P4 ?v_43) ?v_136)) (or (or ?v_31 P7) ?v_181)) (or (or ?v_152 ?v_188) ?v_249)) (or (or ?v_99 ?v_153) ?v_81)) (or (or ?v_7 P4) ?v_142)) (or (or ?v_30 ?v_141) ?v_241)) (or (or ?v_250 ?v_139) ?v_225)) (or (or ?v_119 P13) ?v_25)) (or (or ?v_114 ?v_92) P18)) (or (or ?v_0 ?v_19) ?v_87)) (or (or ?v_89 ?v_182) ?v_227)) (or (or ?v_97 ?v_93) ?v_71)) (or (or ?v_204 ?v_224) P2)) (or (or ?v_94 ?v_138) ?v_145)) (or (or ?v_208 ?v_207) P26)) (or (or ?v_251 ?v_154) ?v_231)) (or (or ?v_243 ?v_176) ?v_233)) (or (or ?v_158 ?v_252) ?v_136)) (or (or ?v_22 ?v_1) ?v_16)) (or (or ?v_45 ?v_198) ?v_116)) (or (or ?v_203 P32) ?v_153)) (or (or ?v_169 ?v_54) ?v_45)) (or (or ?v_53 P29) ?v_238)) (or (or ?v_237 ?v_129) ?v_3)) (or (or ?v_25 ?v_75) ?v_168)) (or (or P34 ?v_30) ?v_10)) (or (or P3 ?v_158) ?v_237)) (or (or ?v_192 P49) ?v_193)) (or (or ?v_93 ?v_185) ?v_227)) (or (or ?v_69 ?v_22) P22)) (or (or ?v_76 ?v_46) ?v_251)) (or (or ?v_40 ?v_155) ?v_78)) (or (or P37 ?v_47) ?v_151)) (or (or ?v_89 ?v_162) ?v_204)) (or (or ?v_141 P17) P29)) (or (or ?v_148 ?v_144) ?v_87)) (or (or ?v_253 ?v_29) ?v_165)) (or (or ?v_26 P20) ?v_141)) (or (or ?v_117 ?v_242) P49)) (or (or ?v_196 ?v_7) ?v_176)) (or (or ?v_103 P13) P38)) (or (or ?v_131 ?v_73) ?v_139)) (or (or P16 ?v_90) ?v_47)) (or (or ?v_201 ?v_222) ?v_159)) (or (or ?v_261 ?v_81) P43)) (or (or ?v_50 ?v_187) ?v_248)) (or (or ?v_172 ?v_153) ?v_207)) (or (or ?v_246 ?v_124) P39)) (or (or ?v_216 ?v_167) ?v_248)) (or (or ?v_176 ?v_254) ?v_149)) (or (or ?v_66 ?v_86) ?v_71)) (or (or ?v_198 P22) P29)) (or (or P46 ?v_112) ?v_88)) (or (or ?v_184 ?v_200) P22)) (or (or ?v_208 P43) ?v_255)) (or (or P2 ?v_116) ?v_126)) (or (or ?v_38 ?v_87) ?v_5)) (or (or ?v_69 ?v_16) ?v_18)) (or (or ?v_256 ?v_26) ?v_144)) (or (or ?v_110 ?v_41) ?v_53)) (or (or ?v_127 ?v_199) ?v_227)) (or (or P42 ?v_169) P21)) (or (or ?v_124 ?v_103) ?v_48)) (or (or ?v_124 P42) ?v_190)) (or (or ?v_198 P46) ?v_136)) (or (or ?v_184 ?v_32) ?v_16)) (or (or ?v_215 ?v_185) ?v_33)) (or (or ?v_61 ?v_202) ?v_166)) (or (or ?v_228 ?v_110) ?v_156)) (or (or P36 ?v_235) P37)) (or (or ?v_29 ?v_167) ?v_65)) (or (or ?v_194 ?v_233) ?v_66)) (or (or ?v_237 ?v_257) P14)) (or (or ?v_176 ?v_30) ?v_201)) (or (or ?v_221 ?v_200) P22)) (or (or P36 ?v_210) ?v_189)) (or (or ?v_258 ?v_110) ?v_145)) (or (or ?v_258 ?v_147) P4)) (or (or ?v_139 ?v_256) ?v_87)) (or (or P6 ?v_68) ?v_259)) (or (or P48 ?v_86) ?v_66)) (or (or P40 ?v_155) ?v_258)) (or (or ?v_151 ?v_135) P34)) (or (or ?v_67 ?v_243) ?v_107)) (or (or ?v_156 ?v_108) P44)) (or (or ?v_16 ?v_153) ?v_238)) (or (or ?v_256 ?v_82) ?v_233)) (or (or ?v_4 ?v_52) ?v_212)) (or (or ?v_236 ?v_236) ?v_254)) (or (or ?v_153 ?v_120) ?v_55)) (or (or ?v_164 ?v_128) ?v_150)) (or (or P5 P16) ?v_151)) (or (or ?v_108 ?v_140) ?v_98)) (or (or P39 ?v_193) ?v_260)) (or (or ?v_212 ?v_40) ?v_211)) (or (or ?v_149 ?v_173) ?v_255)) (or (or ?v_78 ?v_38) ?v_250)) (or (or ?v_126 ?v_188) P38)) (or (or ?v_137 ?v_110) ?v_259)) (or (or ?v_10 ?v_40) ?v_250)) (or (or ?v_95 ?v_76) P19)) (or (or ?v_123 ?v_144) ?v_77)) (or (or ?v_222 ?v_41) ?v_32)) (or (or P35 ?v_199) ?v_129)) (or (or ?v_53 ?v_21) ?v_256)) (or (or ?v_198 P24) ?v_46)) (or (or ?v_167 ?v_163) P9)) (or (or ?v_220 ?v_235) ?v_239)) (or (or ?v_122 ?v_155) ?v_59)) (or (or ?v_221 ?v_155) ?v_133)) (or (or P37 ?v_99) ?v_188)) (or (or ?v_242 ?v_192) ?v_129)) (or (or ?v_36 ?v_216) ?v_97)) (or (or ?v_17 ?v_91) ?v_198)) (or (or ?v_18 ?v_228) ?v_33)) (or (or P39 ?v_215) ?v_136)) (or (or ?v_145 P14) ?v_64)) (or (or ?v_136 P34) ?v_86)) (or (or P15 ?v_78) ?v_8)) (or (or ?v_187 ?v_98) ?v_150)) (or (or ?v_134 ?v_163) ?v_13)) (or (or ?v_249 P36) ?v_123)) (or (or P39 ?v_118) ?v_153)) (or (or P3 ?v_34) ?v_104)) (or (or ?v_191 ?v_81) ?v_108)) (or (or ?v_244 ?v_68) ?v_111)) (or (or ?v_163 ?v_242) ?v_245)) (or (or ?v_36 ?v_137) ?v_211)) (or (or ?v_194 ?v_71) ?v_58)) (or (or ?v_87 P15) ?v_151)) (or (or ?v_73 ?v_21) ?v_241)) (or (or ?v_213 ?v_220) ?v_253)) (or (or ?v_64 ?v_185) ?v_113)) (or (or ?v_217 ?v_198) P33)) (or (or ?v_79 ?v_7) ?v_120)) (or (or P32 ?v_159) ?v_70)) (or (or ?v_258 ?v_149) P41)) (or (or ?v_43 ?v_160) ?v_206)) (or (or ?v_259 ?v_187) ?v_246)) (or (or ?v_36 ?v_242) ?v_235)) (or (or ?v_61 ?v_171) ?v_183)) (or (or ?v_255 ?v_252) ?v_81)) (or (or ?v_154 P45) ?v_141)) (or (or ?v_163 P7) ?v_157)) (or (or P38 ?v_241) P30)) (or (or P42 ?v_104) ?v_43)) (or (or P6 ?v_23) ?v_50)) (or (or P21 ?v_225) ?v_79)) (or (or ?v_150 ?v_2) ?v_64)) (or (or (not ?v_204) ?v_76) ?v_231)) (or (or ?v_157 P3) ?v_261)) (or (or ?v_122 ?v_33) ?v_58)) (or (or ?v_236 ?v_155) ?v_163)) (or (or ?v_251 ?v_106) ?v_200)) (or (or ?v_201 ?v_67) ?v_95)) (or (or ?v_211 ?v_75) ?v_133)) (or (or P31 P31) ?v_141)) (or (or ?v_33 ?v_160) ?v_168)) (or (or ?v_221 ?v_239) ?v_231)) (or (or ?v_116 P13) P9)) (or (or ?v_15 ?v_62) ?v_141)) (or (or ?v_245 P37) ?v_257)) (or (or ?v_112 ?v_133) ?v_69)) (or (or ?v_206 ?v_103) ?v_86)) (or (or ?v_32 ?v_205) P46)) (or (or P12 ?v_94) ?v_121)) (or (or ?v_250 P1) ?v_194)) (or (or ?v_93 ?v_162) P32)) (or (or ?v_171 ?v_136) ?v_180)) (or (or ?v_53 ?v_171) ?v_58)) (or (or ?v_74 ?v_28) ?v_247)) (or (or ?v_209 ?v_138) ?v_256)) (or (or ?v_97 ?v_88) ?v_2)) (or (or ?v_61 ?v_123) ?v_237)) (or (or ?v_141 ?v_15) ?v_143)) (or (or ?v_141 ?v_126) P40)) (or (or ?v_22 ?v_68) ?v_262)) (or (or ?v_243 ?v_254) ?v_149)) (or (or ?v_26 ?v_211) ?v_54)) (or (or ?v_136 P8) ?v_113)) (or (or P7 ?v_246) ?v_187)) (or (or P17 ?v_124) ?v_48)) (or (or ?v_251 ?v_155) P12)) (or (or ?v_220 ?v_53) ?v_60)) (or (or ?v_211 ?v_172) ?v_15)) (or (or ?v_101 ?v_199) ?v_141)) (or (or ?v_209 P1) ?v_246)) (or (or ?v_119 ?v_69) ?v_16)) (or (or P49 ?v_41) ?v_89)) (or (or ?v_234 ?v_72) ?v_58)) (or (or ?v_193 ?v_205) ?v_253)) (or (or ?v_28 P17) ?v_116)) (or (or ?v_130 ?v_162) ?v_260)) (or (or ?v_130 P26) ?v_211)) (or (or ?v_122 ?v_148) ?v_76)) (or (or ?v_253 ?v_230) ?v_89)) (or (or ?v_0 ?v_105) P15)) (or (or ?v_239 P20) ?v_17)) (or (or ?v_256 ?v_199) ?v_1)) (or (or P34 ?v_55) ?v_51)) (or (or P17 P32) ?v_104)) (or (or ?v_89 ?v_29) ?v_70)) (or (or ?v_81 ?v_40) P40)) (or (or P40 ?v_101) ?v_226)) (or (or ?v_112 ?v_134) ?v_138)) (or (or ?v_138 ?v_84) P0)) (or (or ?v_217 ?v_11) ?v_84)) (or (or ?v_33 ?v_102) P4)) (or (or ?v_111 ?v_209) P17)) (or ?v_263 ?v_104)) (or (or ?v_139 ?v_78) ?v_203)) (or (or ?v_206 ?v_123) ?v_153)) (or (or ?v_208 ?v_245) P15)) (or (or ?v_236 ?v_209) ?v_62)) (or (or ?v_264 ?v_140) ?v_99)) (or (or ?v_251 ?v_73) ?v_253)) (or (or ?v_32 ?v_95) ?v_124)) (or (or ?v_237 ?v_80) ?v_105)) (or (or ?v_145 ?v_136) ?v_7)) (or (or ?v_1 ?v_60) ?v_73)) (or (or ?v_151 ?v_89) ?v_124)) (or (or ?v_38 ?v_126) ?v_155)) (or (or ?v_244 ?v_255) P25)) (or (or ?v_250 ?v_250) ?v_114)) (or (or ?v_238 ?v_51) ?v_211)) (or (or ?v_163 P15) ?v_17)) (or (or ?v_88 ?v_138) ?v_120)) (or (or ?v_233 ?v_136) ?v_149)) (or (or ?v_117 ?v_258) ?v_3)) (or (or ?v_128 ?v_160) ?v_180)) (or (or ?v_10 P22) ?v_105)) (or (or ?v_248 ?v_209) ?v_117)) (or (or ?v_62 ?v_22) P37)) (or (or ?v_201 ?v_243) ?v_69)) (or (or ?v_76 ?v_87) ?v_136)))))))))))))))))))))))))))))))))))))))))
(check-sat)
(exit)
